c CNF file generated from BLIF2CNF script.
c Original BLIF file was -
p cnf 62 166
1 -8 0
8 -1  0
-8 7 0
2 -9 0
9 -2  0
-9 7 0
3 -10 0
10 -3  0
-10 7 0
4 -11 0
11 -4  0
-11 7 0
-5 -12 0
-6 -12 0
12 5 6  0
-12 7 0
-7 8 9 10 11 12  0
2 -15 0
15 -2  0
-15 14 0
3 -16 0
16 -3  0
-16 14 0
4 -17 0
17 -4  0
-17 14 0
13 -18 0
-6 -18 0
18 -13 6  0
-18 14 0
-14 15 16 17 18  0
-13 -20 0
-5 -20 0
-6 -20 0
20 13 5 6  0
-20 19 0
-19 20  0
19 -25 0
25 -19  0
-25 24 0
1 -26 0
26 -1  0
-26 24 0
3 -27 0
27 -3  0
-27 24 0
4 -28 0
28 -4  0
-28 24 0
21 -29 0
29 -21  0
-29 24 0
22 -30 0
30 -22  0
-30 24 0
23 -31 0
31 -23  0
-31 24 0
13 -32 0
-6 -32 0
32 -13 6  0
-32 24 0
-24 25 26 27 28 29 30 31 32  0
19 -35 0
35 -19  0
-35 34 0
2 -36 0
36 -2  0
-36 34 0
3 -37 0
37 -3  0
-37 34 0
4 -38 0
38 -4  0
-38 34 0
-33 -39 0
39 33  0
-39 34 0
-34 35 36 37 38 39  0
40 -44 0
44 -40  0
-44 43 0
-33 -45 0
45 33  0
-45 43 0
-5 -46 0
-6 -46 0
46 5 6  0
-46 43 0
-6 -47 0
13 -47 0
41 -47 0
-42 -47 0
47 6 -13 -41 42  0
-47 43 0
-5 -48 0
-22 -48 0
-23 -48 0
21 -48 0
-13 -48 0
48 5 22 23 -21 13  0
-48 43 0
5 -49 0
6 -49 0
-22 -49 0
-23 -49 0
21 -49 0
13 -49 0
49 -5 -6 22 23 -21 -13  0
-49 43 0
-43 44 45 46 47 48 49  0
40 -51 0
51 -40  0
-51 50 0
19 -52 0
52 -19  0
-52 50 0
1 -53 0
53 -1  0
-53 50 0
-33 -54 0
54 33  0
-54 50 0
-22 -55 0
-23 -55 0
-21 -55 0
13 -55 0
6 -55 0
55 22 23 21 -13 -6  0
-55 50 0
13 -56 0
-6 -56 0
41 -56 0
42 -56 0
5 -56 0
56 -13 6 -41 -42 -5  0
-56 50 0
-50 51 52 53 54 55 56  0
-13 -57 0
5 -57 0
57 13 -5  0
-57 2 0
-2 57  0
13 -58 0
-5 -58 0
6 -58 0
58 -13 5 -6  0
-58 1 0
-1 58  0
59 -60 0
-13 -60 0
5 -60 0
6 -60 0
60 -59 13 -5 -6  0
-60 40 0
-40 60  0
-13 -61 0
6 -61 0
61 13 -6  0
-61 4 0
-4 61  0
5 -62 0
6 -62 0
62 -5 -6  0
-62 3 0
-3 62  0
